
  22    4
  10   10   10   10

   0   0   0   0   0   8 2 3 4 5 6 7 11 14 
   7  10  10  10  10   4 17 10 9 8 
   9  10  10  10  10   3 17 9 8 
   3  10  10  10  10   3 18 17 8 
  10  10  10  10  10   4 20 18 15 12 
  10  10  10  10  10   2 18 9 
   6  10  10  10  10   4 20 18 16 15 
   2  10  10  10  10   3 19 15 13 
   2  10  10  10  10   3 20 16 15 
   7  10  10  10  10   3 19 18 15 
   4  10  10  10  10   3 19 17 15 
   9  10  10  10  10   2 17 16 
   3  10  10  10  10   1 16 
   2  10  10  10  10   1 21 
  10  10  10  10  10   1 22
   9  10  10  10  10   1 22
   9  10  10  10  10   1 22
   8  10  10  10  10   1 22
   8  10  10  10  10   1 22
   6  10  10  10  10   1 22
   5  10  10  10  10   1 22
   0   0   0   0   0   0 
